c File: data_files/evolved_graphs/g0407.col
c
c Auto generated graph
c
p edge 100 1194
e 1 2
e 1 8
e 1 16
e 1 40
e 1 49
e 1 64
e 1 65
e 1 66
e 1 67
e 1 68
e 1 69
e 1 70
e 1 71
e 1 72
e 1 75
e 1 76
e 1 77
e 1 78
e 1 79
e 1 80
e 1 81
e 1 82
e 1 83
e 1 84
e 1 85
e 1 86
e 1 87
e 1 88
e 1 89
e 1 90
e 1 91
e 1 92
e 1 93
e 1 94
e 1 96
e 1 97
e 1 99
e 1 100
e 2 33
e 2 65
e 2 67
e 2 68
e 2 69
e 2 70
e 2 71
e 2 72
e 2 73
e 2 75
e 2 76
e 2 77
e 2 78
e 2 79
e 2 80
e 2 81
e 2 83
e 2 84
e 2 86
e 2 87
e 2 88
e 2 89
e 2 90
e 2 92
e 2 93
e 2 94
e 2 95
e 2 96
e 2 97
e 2 98
e 2 99
e 2 100
e 3 14
e 3 26
e 3 52
e 3 63
e 3 65
e 3 67
e 3 68
e 3 70
e 3 71
e 3 72
e 3 73
e 3 75
e 3 76
e 3 77
e 3 78
e 3 79
e 3 80
e 3 81
e 3 82
e 3 83
e 3 86
e 3 87
e 3 88
e 3 89
e 3 90
e 3 91
e 3 92
e 3 93
e 3 94
e 3 95
e 3 96
e 3 97
e 3 98
e 3 99
e 4 12
e 4 25
e 4 28
e 4 63
e 4 65
e 4 66
e 4 67
e 4 68
e 4 69
e 4 70
e 4 71
e 4 72
e 4 73
e 4 74
e 4 75
e 4 76
e 4 77
e 4 79
e 4 80
e 4 81
e 4 82
e 4 83
e 4 84
e 4 85
e 4 86
e 4 87
e 4 88
e 4 90
e 4 91
e 4 92
e 4 93
e 4 94
e 4 95
e 4 96
e 4 99
e 4 100
e 5 11
e 5 23
e 5 63
e 5 65
e 5 66
e 5 67
e 5 68
e 5 71
e 5 74
e 5 75
e 5 76
e 5 77
e 5 78
e 5 79
e 5 80
e 5 81
e 5 83
e 5 86
e 5 87
e 5 88
e 5 89
e 5 90
e 5 91
e 5 93
e 5 94
e 5 96
e 5 97
e 5 98
e 5 99
e 5 100
e 6 15
e 6 20
e 6 36
e 6 52
e 6 54
e 6 57
e 6 65
e 6 66
e 6 67
e 6 68
e 6 69
e 6 70
e 6 71
e 6 72
e 6 73
e 6 74
e 6 75
e 6 77
e 6 78
e 6 79
e 6 80
e 6 81
e 6 82
e 6 83
e 6 84
e 6 85
e 6 86
e 6 87
e 6 88
e 6 89
e 6 90
e 6 91
e 6 92
e 6 93
e 6 96
e 6 97
e 6 98
e 6 99
e 6 100
e 7 45
e 7 66
e 7 67
e 7 68
e 7 69
e 7 70
e 7 71
e 7 72
e 7 74
e 7 75
e 7 76
e 7 77
e 7 79
e 7 80
e 7 81
e 7 82
e 7 83
e 7 84
e 7 85
e 7 86
e 7 87
e 7 88
e 7 89
e 7 90
e 7 91
e 7 92
e 7 93
e 7 94
e 7 95
e 7 96
e 7 97
e 7 98
e 7 99
e 7 100
e 8 48
e 8 65
e 8 66
e 8 67
e 8 68
e 8 69
e 8 70
e 8 71
e 8 72
e 8 73
e 8 74
e 8 75
e 8 76
e 8 77
e 8 78
e 8 79
e 8 80
e 8 81
e 8 82
e 8 84
e 8 85
e 8 86
e 8 87
e 8 89
e 8 90
e 8 91
e 8 92
e 8 93
e 8 95
e 8 96
e 8 97
e 8 98
e 8 99
e 8 100
e 9 42
e 9 48
e 9 66
e 9 67
e 9 69
e 9 71
e 9 72
e 9 73
e 9 75
e 9 76
e 9 77
e 9 78
e 9 79
e 9 81
e 9 82
e 9 83
e 9 84
e 9 86
e 9 87
e 9 88
e 9 89
e 9 90
e 9 91
e 9 92
e 9 93
e 9 94
e 9 95
e 9 96
e 9 97
e 9 98
e 9 99
e 9 100
e 10 65
e 10 67
e 10 68
e 10 69
e 10 70
e 10 71
e 10 72
e 10 73
e 10 75
e 10 76
e 10 77
e 10 79
e 10 80
e 10 81
e 10 82
e 10 83
e 10 84
e 10 85
e 10 87
e 10 89
e 10 90
e 10 91
e 10 92
e 10 93
e 10 94
e 10 95
e 10 97
e 10 98
e 10 99
e 10 100
e 11 16
e 11 17
e 11 20
e 11 38
e 11 53
e 11 63
e 11 65
e 11 66
e 11 67
e 11 68
e 11 69
e 11 70
e 11 72
e 11 73
e 11 74
e 11 75
e 11 76
e 11 77
e 11 78
e 11 80
e 11 83
e 11 84
e 11 86
e 11 87
e 11 88
e 11 89
e 11 90
e 11 91
e 11 93
e 11 94
e 11 96
e 11 97
e 11 98
e 11 99
e 11 100
e 12 40
e 12 44
e 12 65
e 12 66
e 12 67
e 12 68
e 12 69
e 12 70
e 12 72
e 12 73
e 12 75
e 12 76
e 12 77
e 12 78
e 12 79
e 12 80
e 12 81
e 12 82
e 12 83
e 12 84
e 12 85
e 12 86
e 12 88
e 12 90
e 12 91
e 12 92
e 12 93
e 12 94
e 12 95
e 12 96
e 12 97
e 12 98
e 12 100
e 13 31
e 13 65
e 13 66
e 13 67
e 13 68
e 13 69
e 13 71
e 13 72
e 13 73
e 13 74
e 13 76
e 13 78
e 13 80
e 13 81
e 13 82
e 13 83
e 13 84
e 13 85
e 13 88
e 13 89
e 13 90
e 13 91
e 13 92
e 13 94
e 13 95
e 13 97
e 13 98
e 13 99
e 13 100
e 14 45
e 14 46
e 14 58
e 14 67
e 14 68
e 14 69
e 14 70
e 14 71
e 14 72
e 14 73
e 14 74
e 14 75
e 14 76
e 14 77
e 14 78
e 14 79
e 14 81
e 14 82
e 14 83
e 14 85
e 14 86
e 14 87
e 14 88
e 14 89
e 14 90
e 14 91
e 14 93
e 14 95
e 14 96
e 14 97
e 14 98
e 14 99
e 14 100
e 15 16
e 15 65
e 15 66
e 15 67
e 15 68
e 15 69
e 15 70
e 15 71
e 15 73
e 15 74
e 15 75
e 15 77
e 15 78
e 15 80
e 15 81
e 15 83
e 15 85
e 15 86
e 15 88
e 15 89
e 15 90
e 15 91
e 15 93
e 15 94
e 15 96
e 15 97
e 15 98
e 15 100
e 16 43
e 16 65
e 16 66
e 16 67
e 16 68
e 16 69
e 16 70
e 16 72
e 16 74
e 16 75
e 16 77
e 16 78
e 16 80
e 16 83
e 16 84
e 16 85
e 16 86
e 16 87
e 16 88
e 16 89
e 16 90
e 16 91
e 16 92
e 16 93
e 16 94
e 16 95
e 16 96
e 16 98
e 16 99
e 16 100
e 17 23
e 17 28
e 17 29
e 17 42
e 17 65
e 17 66
e 17 67
e 17 68
e 17 69
e 17 71
e 17 72
e 17 73
e 17 74
e 17 75
e 17 76
e 17 77
e 17 78
e 17 79
e 17 80
e 17 81
e 17 82
e 17 83
e 17 85
e 17 86
e 17 87
e 17 88
e 17 90
e 17 91
e 17 92
e 17 93
e 17 94
e 17 95
e 17 96
e 17 97
e 17 98
e 17 99
e 17 100
e 18 66
e 18 67
e 18 68
e 18 70
e 18 71
e 18 73
e 18 75
e 18 76
e 18 77
e 18 79
e 18 80
e 18 81
e 18 82
e 18 83
e 18 84
e 18 85
e 18 86
e 18 87
e 18 88
e 18 89
e 18 91
e 18 92
e 18 93
e 18 94
e 18 96
e 18 98
e 18 100
e 19 26
e 19 34
e 19 52
e 19 58
e 19 65
e 19 66
e 19 67
e 19 68
e 19 69
e 19 70
e 19 71
e 19 72
e 19 73
e 19 74
e 19 75
e 19 76
e 19 77
e 19 78
e 19 79
e 19 80
e 19 81
e 19 82
e 19 83
e 19 84
e 19 85
e 19 86
e 19 87
e 19 88
e 19 89
e 19 90
e 19 91
e 19 92
e 19 93
e 19 94
e 19 95
e 19 96
e 19 97
e 19 98
e 19 99
e 19 100
e 20 46
e 20 65
e 20 66
e 20 67
e 20 68
e 20 69
e 20 70
e 20 71
e 20 72
e 20 73
e 20 74
e 20 75
e 20 76
e 20 77
e 20 78
e 20 79
e 20 80
e 20 81
e 20 82
e 20 83
e 20 84
e 20 85
e 20 86
e 20 87
e 20 88
e 20 89
e 20 90
e 20 91
e 20 92
e 20 93
e 20 94
e 20 95
e 20 96
e 20 97
e 20 98
e 20 99
e 20 100
e 21 36
e 21 56
e 21 62
e 21 65
e 21 66
e 21 67
e 21 68
e 21 69
e 21 70
e 21 71
e 21 72
e 21 73
e 21 74
e 21 75
e 21 76
e 21 77
e 21 78
e 21 79
e 21 80
e 21 81
e 21 82
e 21 83
e 21 84
e 21 85
e 21 86
e 21 87
e 21 88
e 21 89
e 21 90
e 21 91
e 21 92
e 21 93
e 21 94
e 21 95
e 21 96
e 21 97
e 21 98
e 21 99
e 21 100
e 22 47
e 22 65
e 22 66
e 22 67
e 22 68
e 22 69
e 22 70
e 22 71
e 22 72
e 22 73
e 22 74
e 22 75
e 22 76
e 22 77
e 22 78
e 22 79
e 22 80
e 22 81
e 22 82
e 22 83
e 22 84
e 22 85
e 22 86
e 22 87
e 22 88
e 22 89
e 22 90
e 22 91
e 22 92
e 22 93
e 22 94
e 22 95
e 22 96
e 22 97
e 22 98
e 22 99
e 22 100
e 23 33
e 23 36
e 23 65
e 23 66
e 23 67
e 23 68
e 23 69
e 23 70
e 23 71
e 23 72
e 23 73
e 23 74
e 23 75
e 23 76
e 23 77
e 23 78
e 23 79
e 23 80
e 23 81
e 23 82
e 23 83
e 23 84
e 23 85
e 23 86
e 23 87
e 23 88
e 23 89
e 23 90
e 23 91
e 23 92
e 23 93
e 23 94
e 23 95
e 23 96
e 23 97
e 23 98
e 23 99
e 23 100
e 24 39
e 24 41
e 24 49
e 24 65
e 24 66
e 24 67
e 24 68
e 24 69
e 24 70
e 24 71
e 24 72
e 24 73
e 24 74
e 24 75
e 24 76
e 24 77
e 24 78
e 24 79
e 24 80
e 24 81
e 24 82
e 24 83
e 24 84
e 24 85
e 24 86
e 24 87
e 24 88
e 24 89
e 24 90
e 24 91
e 24 92
e 24 93
e 24 94
e 24 95
e 24 96
e 24 97
e 24 98
e 24 99
e 25 65
e 25 66
e 25 67
e 25 68
e 25 69
e 25 70
e 25 71
e 25 72
e 25 73
e 25 74
e 25 75
e 25 76
e 25 77
e 25 78
e 25 79
e 25 80
e 25 81
e 25 82
e 25 83
e 25 85
e 25 86
e 25 87
e 25 88
e 25 89
e 25 90
e 25 91
e 25 96
e 25 97
e 25 98
e 25 99
e 25 100
e 26 27
e 26 29
e 26 45
e 26 61
e 26 65
e 26 66
e 26 67
e 26 68
e 26 69
e 26 70
e 26 71
e 26 72
e 26 73
e 26 74
e 26 75
e 26 76
e 26 77
e 26 78
e 26 79
e 26 80
e 26 81
e 26 82
e 26 83
e 26 84
e 26 85
e 26 86
e 26 87
e 26 88
e 26 89
e 26 90
e 26 91
e 26 96
e 26 97
e 26 98
e 26 99
e 26 100
e 27 44
e 27 65
e 27 66
e 27 67
e 27 68
e 27 69
e 27 70
e 27 71
e 27 72
e 27 73
e 27 74
e 27 75
e 27 76
e 27 77
e 27 78
e 27 79
e 27 80
e 27 81
e 27 82
e 27 83
e 27 85
e 27 86
e 27 87
e 27 88
e 27 89
e 27 90
e 27 91
e 27 96
e 27 97
e 27 98
e 27 99
e 27 100
e 28 38
e 28 40
e 29 33
e 29 54
e 30 53
e 30 62
e 31 50
e 31 53
e 31 54
e 32 63
e 33 34
e 35 43
e 35 46
e 35 48
e 35 59
e 37 38
e 41 60
e 41 62
e 42 47
e 42 54
e 43 47
e 46 51
e 47 55
e 47 57
e 49 51
e 50 62
e 54 63
e 57 60
e 61 63
e 65 76
e 65 92
e 65 93
e 65 94
e 65 95
e 65 97
e 65 98
e 65 99
e 65 100
e 66 72
e 66 92
e 66 93
e 66 94
e 66 95
e 66 96
e 66 97
e 66 99
e 66 100
e 67 72
e 67 74
e 67 82
e 67 91
e 67 93
e 67 94
e 67 95
e 67 96
e 67 97
e 67 98
e 67 99
e 67 100
e 68 78
e 68 91
e 68 92
e 68 93
e 68 94
e 68 95
e 68 96
e 68 97
e 68 98
e 68 99
e 68 100
e 69 86
e 69 88
e 69 92
e 69 93
e 69 94
e 69 95
e 69 96
e 69 97
e 69 98
e 69 99
e 69 100
e 70 89
e 70 92
e 70 93
e 70 95
e 70 96
e 70 97
e 70 98
e 70 99
e 70 100
e 71 92
e 71 93
e 71 94
e 71 95
e 71 96
e 71 97
e 71 98
e 71 99
e 71 100
e 72 87
e 72 92
e 72 93
e 72 95
e 72 96
e 72 97
e 72 98
e 72 99
e 72 100
e 73 92
e 73 93
e 73 94
e 73 95
e 73 96
e 73 97
e 73 98
e 73 99
e 73 100
e 74 81
e 74 92
e 74 93
e 74 94
e 74 95
e 74 96
e 74 97
e 74 98
e 74 99
e 74 100
e 75 92
e 75 93
e 75 94
e 75 95
e 75 96
e 75 98
e 75 99
e 75 100
e 76 92
e 76 94
e 76 95
e 76 96
e 76 97
e 76 98
e 76 99
e 76 100
e 77 82
e 77 92
e 77 93
e 77 95
e 77 96
e 77 97
e 77 98
e 77 99
e 77 100
e 78 92
e 78 93
e 78 94
e 78 95
e 78 96
e 78 97
e 78 98
e 78 99
e 78 100
e 79 92
e 79 93
e 79 94
e 79 95
e 79 96
e 79 97
e 79 99
e 79 100
e 80 84
e 80 92
e 80 93
e 80 94
e 80 95
e 80 96
e 80 97
e 80 98
e 80 99
e 80 100
e 81 92
e 81 93
e 81 94
e 81 95
e 81 96
e 81 97
e 81 98
e 81 99
e 81 100
e 82 92
e 82 93
e 82 94
e 82 95
e 82 96
e 82 97
e 82 100
e 83 89
e 83 93
e 83 94
e 83 95
e 83 97
e 83 99
e 84 92
e 84 93
e 84 94
e 84 95
e 84 96
e 84 97
e 84 98
e 84 99
e 84 100
e 85 86
e 85 92
e 85 93
e 85 94
e 85 95
e 85 96
e 85 97
e 85 99
e 85 100
e 86 92
e 86 93
e 86 94
e 86 95
e 86 96
e 86 98
e 86 99
e 86 100
e 87 90
e 87 92
e 87 93
e 87 94
e 87 95
e 87 96
e 87 97
e 87 98
e 87 99
e 87 100
e 88 91
e 88 92
e 88 93
e 88 94
e 88 95
e 88 96
e 88 97
e 88 98
e 88 99
e 88 100
e 89 92
e 89 93
e 89 94
e 89 95
e 89 96
e 89 97
e 89 98
e 89 99
e 89 100
e 90 92
e 90 93
e 90 94
e 90 95
e 90 96
e 90 97
e 90 98
e 90 99
e 91 92
e 91 93
e 91 94
e 91 95
e 91 97
e 91 98
e 91 99
e 91 100
e 92 100
e 93 99
e 94 96
